Route #1: 66 84 90 68
Route #2: 28 42 78 65 25
Route #3: 52 91 50
Route #4: 31 46 35
Route #5: 5 12 58
Route #6: 18 10 39
Route #7: 1 70 54
Route #8: 75 93
Route #9: 63 77 3
Route #10: 69 16 55 76
Route #11: 38 47 26 48 96 64 34
Route #12: 30 85 11 79
Route #13: 59 60 82
Route #14: 89 98 99 62 71
Route #15: 21 56 94 80
Route #16: 74 13 4
Route #17: 44 67 88 40
Route #18: 32 33 53 73 95 24
Route #19: 8 17
Route #20: 27 97 19
Route #21: 23 61 100
Route #22: 92 9 86
Route #23: 83 51 81
Route #24: 7 2 45 43 29 36 72 57
Route #25: 20 41 22 15
Route #26: 87 37 6 49 14
Cost 27591.0000
Time 16.0002